(set-logic QF_LIA)
(declare-fun x0 () Int)
(declare-fun x1 () Int)
(declare-fun x2 () Int)
(declare-fun x3 () Int)
(declare-fun x4 () Int)
(declare-fun x5 () Int)
(declare-fun x6 () Int)
(declare-fun x7 () Int)
(declare-fun x8 () Int)
(declare-fun x9 () Int)
(declare-fun A0 () Bool)
(declare-fun A1 () Bool)
(declare-fun A2 () Bool)
(declare-fun A3 () Bool)
(declare-fun A4 () Bool)
(declare-fun A5 () Bool)
(declare-fun A6 () Bool)
(declare-fun A7 () Bool)
(declare-fun A8 () Bool)
(declare-fun A9 () Bool)
(assert (let ((.def_0 (* (- 1) x6))) (let ((.def_1 (< .def_0 1))) (let ((.def_2 (not .def_1))) (let ((.def_3 (and .def_2 A9))) (let ((.def_4 (* (- 1) x4))) (let ((.def_5 (* 1 x0))) (let ((.def_6 (+ .def_5 .def_4))) (let ((.def_7 (< .def_6 1))) (let ((.def_8 (* 1 x1))) (let ((.def_9 (< .def_8 1))) (let ((.def_10 (or .def_9 .def_7))) (let ((.def_11 (or .def_10 .def_3))) (let ((.def_12 (not .def_11))) (let ((.def_13 (not A4))) (let ((.def_14 (not A0))) (let ((.def_15 (and .def_14 .def_13))) (let ((.def_16 (not A8))) (let ((.def_17 (or .def_16 A5))) (let ((.def_18 (not .def_17))) (let ((.def_19 (and .def_18 .def_15))) (let ((.def_20 (or .def_19 .def_12))) (let ((.def_21 (not .def_9))) (let ((.def_22 (or .def_16 .def_21))) (let ((.def_23 (not .def_22))) (let ((.def_24 (not A3))) (let ((.def_25 (or .def_16 .def_24))) (let ((.def_26 (not .def_25))) (let ((.def_27 (or .def_26 .def_23))) (let ((.def_28 (* 1 x7))) (let ((.def_29 (+ .def_28 .def_8))) (let ((.def_30 (< .def_29 (- 1)))) (let ((.def_31 (not .def_30))) (let ((.def_32 (* 1 x4))) (let ((.def_33 (* 1 x6))) (let ((.def_34 (+ .def_33 .def_32))) (let ((.def_35 (< .def_34 (- 1)))) (let ((.def_36 (not .def_35))) (let ((.def_37 (or .def_36 .def_31))) (let ((.def_38 (not .def_37))) (let ((.def_39 (* (- 1) x1))) (let ((.def_40 (< .def_39 (- 1)))) (let ((.def_41 (or .def_16 .def_40))) (let ((.def_42 (and .def_41 .def_38))) (let ((.def_43 (and .def_42 .def_27))) (let ((.def_44 (and .def_43 .def_20))) (let ((.def_45 (not .def_44))) (let ((.def_46 (not A7))) (let ((.def_47 (* 1 x5))) (let ((.def_48 (< .def_47 (- 1)))) (let ((.def_49 (and .def_48 .def_46))) (let ((.def_50 (not .def_49))) (let ((.def_51 (< .def_5 (- 1)))) (let ((.def_52 (not .def_51))) (let ((.def_53 (and .def_52 .def_24))) (let ((.def_54 (not .def_53))) (let ((.def_55 (or .def_54 .def_50))) (let ((.def_56 (not .def_55))) (let ((.def_57 (or A4 .def_9))) (let ((.def_58 (* (- 1) x8))) (let ((.def_59 (* 1 x9))) (let ((.def_60 (+ .def_59 .def_58))) (let ((.def_61 (< .def_60 1))) (let ((.def_62 (and .def_24 .def_61))) (let ((.def_63 (not .def_62))) (let ((.def_64 (or .def_63 .def_57))) (let ((.def_65 (and .def_64 .def_56))) (let ((.def_66 (and A3 A8))) (let ((.def_67 (not .def_66))) (let ((.def_68 (* (- 1) x5))) (let ((.def_69 (< .def_68 (- 1)))) (let ((.def_70 (or A1 .def_69))) (let ((.def_71 (= .def_70 .def_67))) (let ((.def_72 (not .def_71))) (let ((.def_73 (not A5))) (let ((.def_74 (< .def_8 (- 1)))) (let ((.def_75 (not .def_74))) (let ((.def_76 (or .def_75 .def_73))) (let ((.def_77 (* (- 1) x2))) (let ((.def_78 (+ .def_77 .def_58))) (let ((.def_79 (< .def_78 (- 1)))) (let ((.def_80 (and .def_79 A0))) (let ((.def_81 (or .def_80 .def_76))) (let ((.def_82 (and .def_81 .def_72))) (let ((.def_83 (not .def_82))) (let ((.def_84 (and .def_83 .def_65))) (let ((.def_85 (not .def_84))) (let ((.def_86 (and .def_85 .def_45))) (let ((.def_87 (not .def_86))) (let ((.def_88 (+ .def_58 .def_32))) (let ((.def_89 (< .def_88 (- 1)))) (let ((.def_90 (not .def_89))) (let ((.def_91 (+ .def_0 .def_59))) (let ((.def_92 (< .def_91 1))) (let ((.def_93 (not .def_92))) (let ((.def_94 (or .def_93 .def_90))) (let ((.def_95 (< .def_68 1))) (let ((.def_96 (or .def_16 .def_95))) (let ((.def_97 (or .def_96 .def_94))) (let ((.def_98 (not .def_97))) (let ((.def_99 (* 1 x2))) (let ((.def_100 (+ .def_68 .def_99))) (let ((.def_101 (< .def_100 (- 1)))) (let ((.def_102 (* 1 x3))) (let ((.def_103 (+ .def_5 .def_102))) (let ((.def_104 (< .def_103 (- 1)))) (let ((.def_105 (not .def_104))) (let ((.def_106 (or .def_105 .def_101))) (let ((.def_107 (not .def_106))) (let ((.def_108 (and .def_18 .def_107))) (let ((.def_109 (not .def_108))) (let ((.def_110 (and .def_109 .def_98))) (let ((.def_111 (not .def_110))) (let ((.def_112 (< .def_77 1))) (let ((.def_113 (not .def_112))) (let ((.def_114 (* (- 1) x7))) (let ((.def_115 (+ .def_59 .def_114))) (let ((.def_116 (< .def_115 (- 1)))) (let ((.def_117 (not .def_116))) (let ((.def_118 (or .def_117 .def_113))) (let ((.def_119 (not .def_118))) (let ((.def_120 (or A7 .def_24))) (let ((.def_121 (not .def_120))) (let ((.def_122 (or .def_121 .def_119))) (let ((.def_123 (not .def_122))) (let ((.def_124 (and A1 .def_14))) (let ((.def_125 (or A5 A5))) (let ((.def_126 (not .def_125))) (let ((.def_127 (= .def_126 .def_124))) (let ((.def_128 (and .def_127 .def_123))) (let ((.def_129 (and .def_128 .def_111))) (let ((.def_130 (not .def_129))) (let ((.def_131 (* 1 x8))) (let ((.def_132 (< .def_131 1))) (let ((.def_133 (not .def_132))) (let ((.def_134 (+ .def_99 .def_68))) (let ((.def_135 (< .def_134 (- 1)))) (let ((.def_136 (not .def_135))) (let ((.def_137 (or .def_136 .def_133))) (let ((.def_138 (< .def_39 1))) (let ((.def_139 (not .def_138))) (let ((.def_140 (< .def_32 (- 1)))) (let ((.def_141 (or .def_140 .def_139))) (let ((.def_142 (and .def_141 .def_137))) (let ((.def_143 (not .def_142))) (let ((.def_144 (not A1))) (let ((.def_145 (and A0 .def_144))) (let ((.def_146 (not .def_145))) (let ((.def_147 (not A6))) (let ((.def_148 (or .def_46 .def_147))) (let ((.def_149 (not .def_148))) (let ((.def_150 (= .def_149 .def_146))) (let ((.def_151 (or .def_150 .def_143))) (let ((.def_152 (not .def_151))) (let ((.def_153 (not A2))) (let ((.def_154 (and .def_24 .def_153))) (let ((.def_155 (+ .def_58 .def_114))) (let ((.def_156 (< .def_155 (- 1)))) (let ((.def_157 (not .def_156))) (let ((.def_158 (or .def_157 .def_144))) (let ((.def_159 (and .def_158 .def_154))) (let ((.def_160 (not .def_159))) (let ((.def_161 (not A9))) (let ((.def_162 (and .def_161 A6))) (let ((.def_163 (not .def_162))) (let ((.def_164 (< .def_115 1))) (let ((.def_165 (or .def_164 .def_46))) (let ((.def_166 (not .def_165))) (let ((.def_167 (or .def_166 .def_163))) (let ((.def_168 (not .def_167))) (let ((.def_169 (= .def_168 .def_160))) (let ((.def_170 (= .def_169 .def_152))) (let ((.def_171 (not .def_170))) (let ((.def_172 (and .def_171 .def_130))) (let ((.def_173 (and .def_172 .def_87))) (let ((.def_174 (not .def_173))) (let ((.def_175 (<= x9 1))) (let ((.def_176 (<= 0 x9))) (let ((.def_177 (<= x8 1))) (let ((.def_178 (<= 0 x8))) (let ((.def_179 (<= x7 1))) (let ((.def_180 (<= 0 x7))) (let ((.def_181 (<= x6 1))) (let ((.def_182 (<= 0 x6))) (let ((.def_183 (<= x5 1))) (let ((.def_184 (<= 0 x5))) (let ((.def_185 (<= x4 1))) (let ((.def_186 (<= 0 x4))) (let ((.def_187 (<= x3 1))) (let ((.def_188 (<= 0 x3))) (let ((.def_189 (<= x2 1))) (let ((.def_190 (<= 0 x2))) (let ((.def_191 (<= x1 1))) (let ((.def_192 (<= 0 x1))) (let ((.def_193 (<= x0 1))) (let ((.def_194 (<= 0 x0))) (let ((.def_195 (and .def_194 .def_193 .def_192 .def_191 .def_190 .def_189 .def_188 .def_187 .def_186 .def_185 .def_184 .def_183 .def_182 .def_181 .def_180 .def_179 .def_178 .def_177 .def_176 .def_175 .def_174))) .def_195)))))))))))))))))))))))))))))))))))))))))))))))))))))))))))))))))))))))))))))))))))))))))))))))))))))))))))))))))))))))))))))))))))))))))))))))))))))))))))))))))))))))))))))))))))))))))))))))))))))
(check-sat)
